c 1 A_1
c 2 A_2
c 3 A_3
c 4 A_4
c 5 A_5
c 6 B_1
c 7 B_2
c 8 B_3
c 9 B_4
c 10 B_5
c 11 C_1
c 12 C_2
c 13 C_3
c 14 C_4
c 15 C_5
c 16 D_1
c 17 D_2
c 18 D_3
c 19 D_4
c 20 D_5
c 21 E_1
c 22 E_2
c 23 E_3
c 24 E_4
c 25 E_5
c 26 F_1
c 27 F_2
c 28 F_3
c 29 F_4
c 30 F_5
c 31 G_1
c 32 G_2
c 33 G_3
c 34 G_4
c 35 G_5
c 36 H_1
c 37 H_2
c 38 H_3
c 39 H_4
c 40 H_5
c 41 I_1
c 42 I_2
c 43 I_3
c 44 I_4
c 45 I_5
c 46 J_1
c 47 J_2
c 48 J_3
c 49 J_4
c 50 J_5
c 51 K_1
c 52 K_2
c 53 K_3
c 54 K_4
c 55 K_5
c 56 L_1
c 57 L_2
c 58 L_3
c 59 L_4
c 60 L_5
c 61 Tseitin_Variable_1
c 62 Tseitin_Variable_2
c 63 Tseitin_Variable_3
c 64 Tseitin_Variable_4
c 65 Tseitin_Variable_5
c 66 Tseitin_Variable_6
c 67 Tseitin_Variable_7
c 68 Tseitin_Variable_8
c 69 Tseitin_Variable_9
c 70 Tseitin_Variable_10
c 71 Tseitin_Variable_11
c 72 Tseitin_Variable_12
c 73 Tseitin_Variable_13
c 74 Tseitin_Variable_14
c 75 Tseitin_Variable_15
c 76 Tseitin_Variable_16
c 77 Tseitin_Variable_17
c 78 Tseitin_Variable_18
c 79 Tseitin_Variable_19
c 80 Tseitin_Variable_20
c 81 Tseitin_Variable_21
c 82 Tseitin_Variable_22
c 83 Tseitin_Variable_23
c 84 Tseitin_Variable_24
c 85 Tseitin_Variable_25
c 86 Tseitin_Variable_26
c 87 Tseitin_Variable_27
c 88 Tseitin_Variable_28
c 89 Tseitin_Variable_29
c 90 Tseitin_Variable_30
c 91 Tseitin_Variable_31
c 92 Tseitin_Variable_32
c 93 Tseitin_Variable_33
c 94 Tseitin_Variable_34
c 95 Tseitin_Variable_35
c 96 Tseitin_Variable_36
c 97 Tseitin_Variable_37
c 98 Tseitin_Variable_38
c 99 Tseitin_Variable_39
c 100 Tseitin_Variable_40
c 101 Tseitin_Variable_41
c 102 Tseitin_Variable_42
c 103 Tseitin_Variable_43
c 104 Tseitin_Variable_44
c 105 Tseitin_Variable_45
c 106 Tseitin_Variable_46
c 107 Tseitin_Variable_47
c 108 Tseitin_Variable_48
c 109 Tseitin_Variable_49
c 110 Tseitin_Variable_50
c 111 Tseitin_Variable_51
c 112 Tseitin_Variable_52
p cnf 112 340
-5 0
-10 0
-15 0
-20 0
-25 0
-30 0
-35 0
-40 0
-45 0
-50 0
-55 0
-60 0
1 6 11 -61 0
1 -6 -61 -11 0
6 -1 -61 -11 0
11 -1 -6 -61 0
61 -1 -6 -11 0
6 11 -1 61 0
1 11 -6 61 0
1 6 61 -11 0
-61 0
16 21 26 -62 0
16 -21 -26 -62 0
21 -16 -26 -62 0
26 -21 -16 -62 0
62 -16 -21 -26 0
21 26 -16 62 0
16 26 -21 62 0
16 21 -26 62 0
-62 0
31 36 41 -63 0
31 -36 -41 -63 0
36 -31 -41 -63 0
41 -36 -31 -63 0
63 -31 -36 -41 0
36 41 -31 63 0
31 41 -36 63 0
31 36 -41 63 0
-63 0
46 51 56 -64 0
46 -51 -56 -64 0
51 -46 -56 -64 0
56 -51 -46 -64 0
64 -46 -51 -56 0
51 56 -46 64 0
46 56 -51 64 0
46 51 -56 64 0
-64 0
1 65 0
6 65 0
-1 -6 -65 0
7 -65 -66 0
-7 65 -66 0
66 -7 -65 0
7 65 66 0
2 12 66 -67 0
2 -66 -12 -67 0
-2 66 -12 -67 0
12 -2 -66 -67 0
-2 -66 -12 67 0
12 -2 66 67 0
2 12 -66 67 0
2 66 -12 67 0
-67 0
2 7 -68 0
2 -65 -68 0
7 -65 -68 0
68 -2 -7 0
-2 65 68 0
-7 65 68 0
-8 -68 -69 0
8 68 -69 0
8 -68 69 0
-8 68 69 0
3 13 69 -70 0
3 -69 -13 -70 0
-3 69 -13 -70 0
13 -3 -69 -70 0
-3 -69 -13 70 0
13 -3 69 70 0
3 13 -69 70 0
3 69 -13 70 0
-70 0
3 8 -71 0
8 68 -71 0
3 68 -71 0
-8 -3 71 0
71 -8 -68 0
71 -3 -68 0
-9 -71 -72 0
9 71 -72 0
9 -71 72 0
-9 71 72 0
4 14 72 -73 0
4 -72 -14 -73 0
-4 72 -14 -73 0
14 -4 -72 -73 0
-4 -72 -14 73 0
14 -4 72 73 0
4 14 -72 73 0
4 72 -14 73 0
-73 0
4 9 -74 0
9 71 -74 0
4 71 -74 0
-9 -4 74 0
74 -9 -71 0
74 -4 -71 0
-10 -74 -75 0
10 74 -75 0
10 -74 75 0
-10 74 75 0
5 15 75 -76 0
5 -15 -75 -76 0
-5 -15 75 -76 0
-5 15 -75 -76 0
-5 -15 -75 76 0
-5 15 75 76 0
5 15 -75 76 0
5 -15 75 76 0
-76 0
16 77 0
21 77 0
-16 -21 -77 0
22 -77 -78 0
-22 77 -78 0
78 -22 -77 0
22 77 78 0
17 27 78 -79 0
17 -78 -27 -79 0
-17 78 -27 -79 0
27 -17 -78 -79 0
-17 -78 -27 79 0
27 -17 78 79 0
17 27 -78 79 0
17 78 -27 79 0
-79 0
17 22 -80 0
17 -77 -80 0
22 -77 -80 0
80 -17 -22 0
-17 77 80 0
-22 77 80 0
-23 -80 -81 0
23 80 -81 0
23 -80 81 0
-23 80 81 0
18 28 81 -82 0
18 -81 -28 -82 0
-18 81 -28 -82 0
28 -18 -81 -82 0
-18 -81 -28 82 0
28 -18 81 82 0
18 28 -81 82 0
18 81 -28 82 0
-82 0
18 23 -83 0
23 80 -83 0
18 80 -83 0
-23 -18 83 0
83 -23 -80 0
83 -18 -80 0
-24 -83 -84 0
24 83 -84 0
24 -83 84 0
-24 83 84 0
19 29 84 -85 0
19 -84 -29 -85 0
-19 84 -29 -85 0
29 -19 -84 -85 0
-19 -84 -29 85 0
29 -19 84 85 0
19 29 -84 85 0
19 84 -29 85 0
-85 0
19 24 -86 0
24 83 -86 0
19 83 -86 0
-24 -19 86 0
86 -24 -83 0
86 -19 -83 0
-25 -86 -87 0
25 86 -87 0
25 -86 87 0
-25 86 87 0
20 30 87 -88 0
20 -30 -87 -88 0
-20 -30 87 -88 0
-20 30 -87 -88 0
-20 -30 -87 88 0
-20 30 87 88 0
20 30 -87 88 0
20 -30 87 88 0
-88 0
31 89 0
36 89 0
-31 -36 -89 0
37 -89 -90 0
-37 89 -90 0
90 -37 -89 0
37 89 90 0
32 42 90 -91 0
32 -90 -42 -91 0
-32 90 -42 -91 0
42 -32 -90 -91 0
-32 -90 -42 91 0
42 -32 90 91 0
32 42 -90 91 0
32 90 -42 91 0
-91 0
32 37 -92 0
32 -89 -92 0
37 -89 -92 0
92 -32 -37 0
-32 89 92 0
-37 89 92 0
-38 -92 -93 0
38 92 -93 0
38 -92 93 0
-38 92 93 0
33 43 93 -94 0
33 -93 -43 -94 0
-33 93 -43 -94 0
43 -33 -93 -94 0
-33 -93 -43 94 0
43 -33 93 94 0
33 43 -93 94 0
33 93 -43 94 0
-94 0
33 38 -95 0
38 92 -95 0
33 92 -95 0
-38 -33 95 0
95 -38 -92 0
95 -33 -92 0
-39 -95 -96 0
39 95 -96 0
39 -95 96 0
-39 95 96 0
34 44 96 -97 0
34 -96 -44 -97 0
-34 96 -44 -97 0
44 -34 -96 -97 0
-34 -96 -44 97 0
44 -34 96 97 0
34 44 -96 97 0
34 96 -44 97 0
-97 0
34 39 -98 0
39 95 -98 0
34 95 -98 0
-39 -34 98 0
98 -39 -95 0
98 -34 -95 0
-40 -98 -99 0
40 98 -99 0
40 -98 99 0
-40 98 99 0
35 45 99 -100 0
35 -45 -99 -100 0
-35 -45 99 -100 0
-35 45 -99 -100 0
-35 -45 -99 100 0
-35 45 99 100 0
35 45 -99 100 0
35 -45 99 100 0
-100 0
46 101 0
51 101 0
-46 -51 -101 0
52 -101 -102 0
-52 101 -102 0
102 -52 -101 0
52 101 102 0
47 57 102 -103 0
47 -102 -57 -103 0
-47 102 -57 -103 0
57 -47 -102 -103 0
-47 -102 -57 103 0
57 -47 102 103 0
47 57 -102 103 0
47 102 -57 103 0
-103 0
47 52 -104 0
47 -101 -104 0
52 -101 -104 0
104 -47 -52 0
-47 101 104 0
-52 101 104 0
-53 -104 -105 0
53 104 -105 0
53 -104 105 0
-53 104 105 0
48 58 105 -106 0
48 -105 -58 -106 0
-48 105 -58 -106 0
58 -48 -105 -106 0
-48 -105 -58 106 0
58 -48 105 106 0
48 58 -105 106 0
48 105 -58 106 0
-106 0
48 53 -107 0
53 104 -107 0
48 104 -107 0
-53 -48 107 0
107 -53 -104 0
107 -48 -104 0
-54 -107 -108 0
54 107 -108 0
54 -107 108 0
-54 107 108 0
49 59 108 -109 0
49 -108 -59 -109 0
-49 108 -59 -109 0
59 -49 -108 -109 0
-49 -108 -59 109 0
59 -49 108 109 0
49 59 -108 109 0
49 108 -59 109 0
-109 0
49 54 -110 0
54 107 -110 0
49 107 -110 0
-54 -49 110 0
110 -54 -107 0
110 -49 -107 0
-55 -110 -111 0
55 110 -111 0
55 -110 111 0
-55 110 111 0
50 60 111 -112 0
50 -60 -111 -112 0
-50 -60 111 -112 0
-50 60 -111 -112 0
-50 -60 -111 112 0
-50 60 111 112 0
50 60 -111 112 0
50 -60 111 112 0
-112 0